Version identifier: 12.10.0.0 | 2019-11-26 | 843d4de
CPXPARAM_WorkMem                                 28672
Tried aggregator 2 times.
MIP Presolve modified 122 coefficients.
Aggregator did 20 substitutions.
Reduced MIP has 115 rows, 150 columns, and 545 nonzeros.
Reduced MIP has 150 binaries, 0 generals, 0 SOSs, and 0 indicators.
Presolve time = 0,00 sec. (0,71 ticks)
Found incumbent of value 97,000000 after 0,01 sec. (1,46 ticks)
Probing time = 0,00 sec. (0,20 ticks)
Tried aggregator 1 time.
Detecting symmetries...
MIP Presolve eliminated 23 rows and 0 columns.
MIP Presolve added 46 rows and 0 columns.
Reduced MIP has 138 rows, 150 columns, and 568 nonzeros.
Reduced MIP has 150 binaries, 0 generals, 0 SOSs, and 0 indicators.
Presolve time = 0,00 sec. (0,65 ticks)
Probing time = 0,00 sec. (0,20 ticks)
Clique table members: 318.
MIP emphasis: balance optimality and feasibility.
MIP search method: dynamic search.
Parallel mode: deterministic, using up to 16 threads.
Root relaxation solution time = 0,00 sec. (0,70 ticks)

        Nodes                                         Cuts/
   Node  Left     Objective  IInf  Best Integer    Best Bound    ItCnt     Gap

*     0+    0                           97,0000        0,0000           100,00%
*     0+    0                           55,0000        0,0000           100,00%
*     0+    0                           51,0000        0,0000           100,00%
*     0+    0                           48,0000        0,0000           100,00%
      0     0       26,8720    73       48,0000       26,8720      124   44,02%
      0     0       28,1832    73       48,0000     Cuts: 134      186   41,28%
      0     0       30,4118    73       48,0000     Cuts: 120      250   36,64%
      0     0       31,8967    73       48,0000     Cuts: 113      318   33,55%
      0     0       32,6231    73       48,0000      Cuts: 87      367   32,04%
      0     0       33,1449    73       48,0000      Cuts: 61      412   30,95%
      0     0       33,4936    73       48,0000      Cuts: 38      449   30,22%
      0     0       33,9391    73       48,0000      Cuts: 46      501   29,29%
      0     0       34,6266    73       48,0000      Cuts: 40      555   27,86%
      0     0       34,9596    73       48,0000      Cuts: 32      599   27,17%
      0     0       35,3068    73       48,0000      Cuts: 40      640   26,44%
      0     0       35,4688    73       48,0000      Cuts: 37      682   26,11%
      0     0       35,6211    73       48,0000      Cuts: 34      727   25,79%
      0     0       35,7739    73       48,0000      Cuts: 42      778   25,47%
      0     0       36,0831    73       48,0000      Cuts: 27      842   24,83%
      0     0       36,2348    73       48,0000      Cuts: 28      886   24,51%
      0     0       36,3177    73       48,0000      Cuts: 32      913   24,34%
      0     0       36,4283    73       48,0000      Cuts: 24      945   24,11%
      0     0       36,4818    73       48,0000      Cuts: 29      973   24,00%
*     0+    0                           47,0000       36,4818            22,38%
      0     0       36,5243    73       47,0000      Cuts: 24     1001   22,29%
      0     0       36,5828    73       47,0000      Cuts: 24     1045   22,16%
      0     0       36,6941    73       47,0000      Cuts: 24     1096   21,93%
      0     0       36,7346    73       47,0000      Cuts: 34     1125   21,84%
      0     0       36,7533    73       47,0000      Cuts: 19     1157   21,80%
      0     0       36,7729    73       47,0000      Cuts: 20     1188   21,76%
      0     0       36,8471    73       47,0000      Cuts: 17     1237   21,60%
      0     0       36,9624    73       47,0000      Cuts: 24     1289   21,36%
      0     0       36,9995    73       47,0000      Cuts: 35     1327   21,28%
      0     0       37,0301    73       47,0000      Cuts: 36     1374   21,21%
      0     0       37,0567    73       47,0000      Cuts: 20     1403   21,16%
      0     0       37,0697    73       47,0000      Cuts: 24     1436   21,13%
      0     0       37,1193    73       47,0000      Cuts: 24     1475   21,02%
      0     0       37,1480    73       47,0000      Cuts: 28     1509   19,16%
      0     0       37,3309    73       47,0000      Cuts: 33     1585   19,16%
      0     0       37,6063    73       47,0000      Cuts: 40     1655   19,16%
      0     0       37,8948    73       47,0000      Cuts: 43     1717   19,16%
      0     0       38,0228    73       47,0000      Cuts: 31     1763   19,10%
      0     0       38,1673    73       47,0000      Cuts: 50     1820   18,79%
      0     0       38,2704    73       47,0000      Cuts: 32     1854   18,57%
      0     0       38,3201    73       47,0000      Cuts: 33     1898   18,47%
      0     0       38,3522    73       47,0000      Cuts: 18     1922   18,40%
      0     0       38,4858    73       47,0000      Cuts: 16     1964   18,12%
      0     0       38,5678    73       47,0000      Cuts: 33     2007   17,94%
      0     0       38,6635    73       47,0000      Cuts: 21     2042   17,74%
      0     0       38,6876    73       47,0000      Cuts: 25     2064   17,69%
      0     0       38,7431    73       47,0000      Cuts: 27     2106   17,57%
      0     0       38,7842    73       47,0000      Cuts: 19     2142   17,48%
      0     0       38,8193    73       47,0000      Cuts: 12     2175   17,41%
      0     0       38,8488    73       47,0000      Cuts: 17     2203   17,34%
      0     0       38,8610    73       47,0000      Cuts: 21     2226   14,16%
      0     0       38,8871    73       47,0000      Cuts: 12     2252   14,16%
      0     2       38,8871   145       47,0000       41,0896     2252   12,58%
Elapsed time = 0,86 sec. (340,56 ticks, tree = 0,02 MB, solutions = 5)

GUB cover cuts applied:  15
Clique cuts applied:  21
Cover cuts applied:  71
Flow cuts applied:  1
Mixed integer rounding cuts applied:  38
Zero-half cuts applied:  50
Lift and project cuts applied:  4
Gomory fractional cuts applied:  1

Root node processing (before b&c):
  Real time             =    0,86 sec. (340,31 ticks)
Parallel b&c, 16 threads:
  Real time             =    0,06 sec. (33,00 ticks)
  Sync time (average)   =    0,04 sec.
  Wait time (average)   =    0,00 sec.
                          ------------
Total (root+branch&cut) =    0,92 sec. (373,31 ticks)
